p cnf 789 2685
1 -2 -3 0
2 -1 -3 0
-1 -2 3 0
2 1 3 0
-4 -3 0
2 -5 -6 0
5 -2 -6 0
6 -2 -5 0
6 2 5 0
-7 6 0
-1 8 0
-9 8 0
1 9 -8 0
2 -8 -10 0
-2 8 -10 0
-2 -8 10 0
2 8 10 0
-11 10 0
1 12 0
9 12 0
-1 -9 -12 0
-2 12 -13 0
2 -12 -13 0
13 -12 -2 0
2 12 13 0
-14 -13 0
5 -9 -15 0
9 -5 -15 0
-5 -9 15 0
5 9 15 0
-4 -15 0
9 -16 -17 0
16 -9 -17 0
17 -9 -16 0
17 9 16 0
-7 17 0
-5 18 0
-19 18 0
5 19 -18 0
9 -18 -20 0
-9 18 -20 0
-9 -18 20 0
9 18 20 0
-11 20 0
5 21 0
19 21 0
-5 -19 -21 0
-9 21 -22 0
9 -21 -22 0
22 -21 -9 0
9 21 22 0
-14 -22 0
16 -19 -23 0
19 -16 -23 0
-16 -19 23 0
16 19 23 0
-4 -23 0
19 -24 -25 0
24 -19 -25 0
25 -19 -24 0
25 19 24 0
-7 25 0
-16 26 0
-27 26 0
16 27 -26 0
19 -26 -28 0
-19 26 -28 0
-19 -26 28 0
19 26 28 0
-11 28 0
16 29 0
27 29 0
-16 -27 -29 0
-19 29 -30 0
19 -29 -30 0
30 -29 -19 0
19 29 30 0
-14 -30 0
24 -27 -31 0
27 -24 -31 0
-24 -27 31 0
24 27 31 0
-4 -31 0
27 -32 -33 0
32 -27 -33 0
33 -27 -32 0
33 27 32 0
-7 33 0
-24 34 0
-35 34 0
24 35 -34 0
27 -34 -36 0
-27 34 -36 0
-27 -34 36 0
27 34 36 0
-11 36 0
24 37 0
35 37 0
-24 -35 -37 0
-27 37 -38 0
27 -37 -38 0
38 -37 -27 0
27 37 38 0
-14 -38 0
32 -35 -39 0
35 -32 -39 0
-32 -35 39 0
32 35 39 0
-4 -39 0
35 -40 -41 0
40 -35 -41 0
41 -35 -40 0
41 35 40 0
-7 41 0
-32 42 0
-43 42 0
32 43 -42 0
35 -42 -44 0
-35 42 -44 0
-35 -42 44 0
35 42 44 0
-11 44 0
32 45 0
43 45 0
-32 -43 -45 0
-35 45 -46 0
35 -45 -46 0
46 -45 -35 0
35 45 46 0
-14 -46 0
40 -43 -47 0
43 -40 -47 0
-40 -43 47 0
40 43 47 0
-4 -47 0
43 -48 -49 0
48 -43 -49 0
49 -43 -48 0
49 43 48 0
-7 49 0
-40 50 0
-51 50 0
40 51 -50 0
43 -50 -52 0
-43 50 -52 0
-43 -50 52 0
43 50 52 0
-11 52 0
40 53 0
51 53 0
-40 -51 -53 0
-43 53 -54 0
43 -53 -54 0
54 -53 -43 0
43 53 54 0
-14 -54 0
48 -51 -55 0
51 -48 -55 0
-48 -51 55 0
48 51 55 0
-4 -55 0
51 -56 -57 0
56 -51 -57 0
57 -51 -56 0
57 51 56 0
-7 57 0
-48 58 0
-59 58 0
48 59 -58 0
51 -58 -60 0
-51 58 -60 0
-51 -58 60 0
51 58 60 0
-11 60 0
48 61 0
59 61 0
-48 -59 -61 0
-51 61 -62 0
51 -61 -62 0
62 -61 -51 0
51 61 62 0
-14 -62 0
56 -59 -63 0
59 -56 -63 0
-56 -59 63 0
56 59 63 0
-4 -63 0
59 -64 -65 0
64 -59 -65 0
65 -59 -64 0
65 59 64 0
-7 65 0
-56 66 0
-67 66 0
56 67 -66 0
59 -66 -68 0
-59 66 -68 0
-59 -66 68 0
59 66 68 0
-11 68 0
56 69 0
67 69 0
-56 -67 -69 0
-59 69 -70 0
59 -69 -70 0
70 -69 -59 0
59 69 70 0
-14 -70 0
64 -67 -71 0
67 -64 -71 0
-64 -67 71 0
64 67 71 0
-4 -71 0
67 -72 -73 0
72 -67 -73 0
73 -67 -72 0
73 67 72 0
-7 73 0
-64 74 0
-75 74 0
64 75 -74 0
67 -74 -76 0
-67 74 -76 0
-67 -74 76 0
67 74 76 0
-11 76 0
64 77 0
75 77 0
-64 -75 -77 0
-67 77 -78 0
67 -77 -78 0
78 -77 -67 0
67 77 78 0
-14 -78 0
72 -75 -79 0
75 -72 -79 0
-72 -75 79 0
72 75 79 0
-4 -79 0
75 -80 -81 0
80 -75 -81 0
81 -75 -80 0
81 75 80 0
-7 81 0
-72 82 0
-83 82 0
72 83 -82 0
75 -82 -84 0
-75 82 -84 0
-75 -82 84 0
75 82 84 0
-11 84 0
72 85 0
83 85 0
-72 -83 -85 0
-75 85 -86 0
75 -85 -86 0
86 -85 -75 0
75 85 86 0
-14 -86 0
80 -83 -87 0
83 -80 -87 0
-80 -83 87 0
80 83 87 0
-4 -87 0
-40 83 -88 0
40 -83 -88 0
88 -83 -40 0
88 83 40 0
-7 88 0
-40 89 0
-48 89 0
-56 89 0
-64 89 0
-72 89 0
-80 89 0
90 0
83 -89 -91 0
-83 89 -91 0
-83 -89 91 0
83 89 91 0
-11 91 0
40 92 0
48 92 0
56 92 0
64 92 0
72 92 0
80 92 0
-93 0
-83 92 -94 0
83 -92 -94 0
94 -92 -83 0
83 92 94 0
-14 -94 0
95 -96 -97 0
96 -95 -97 0
-95 -96 97 0
96 95 97 0
-4 -97 0
96 -98 -99 0
98 -96 -99 0
99 -96 -98 0
99 96 98 0
-7 99 0
-95 100 0
-101 100 0
95 101 -100 0
96 -100 -102 0
-96 100 -102 0
-96 -100 102 0
96 100 102 0
-11 102 0
95 103 0
101 103 0
-95 -101 -103 0
-96 103 -104 0
96 -103 -104 0
104 -103 -96 0
96 103 104 0
-14 -104 0
98 -101 -105 0
101 -98 -105 0
-98 -101 105 0
98 101 105 0
-4 -105 0
101 -106 -107 0
106 -101 -107 0
107 -101 -106 0
107 101 106 0
-7 107 0
-98 108 0
-109 108 0
98 109 -108 0
101 -108 -110 0
-101 108 -110 0
-101 -108 110 0
101 108 110 0
-11 110 0
98 111 0
109 111 0
-98 -109 -111 0
-101 111 -112 0
101 -111 -112 0
112 -111 -101 0
101 111 112 0
-14 -112 0
106 -109 -113 0
109 -106 -113 0
-106 -109 113 0
106 109 113 0
-4 -113 0
109 -114 -115 0
114 -109 -115 0
115 -109 -114 0
115 109 114 0
-7 115 0
-106 116 0
-117 116 0
106 117 -116 0
109 -116 -118 0
-109 116 -118 0
-109 -116 118 0
109 116 118 0
-11 118 0
106 119 0
117 119 0
-106 -117 -119 0
-109 119 -120 0
109 -119 -120 0
120 -119 -109 0
109 119 120 0
-14 -120 0
114 -117 -121 0
117 -114 -121 0
-114 -117 121 0
114 117 121 0
-4 -121 0
117 -122 -123 0
122 -117 -123 0
123 -117 -122 0
123 117 122 0
-7 123 0
-114 124 0
-125 124 0
114 125 -124 0
117 -124 -126 0
-117 124 -126 0
-117 -124 126 0
117 124 126 0
-11 126 0
114 127 0
125 127 0
-114 -125 -127 0
-117 127 -128 0
117 -127 -128 0
128 -127 -117 0
117 127 128 0
-14 -128 0
122 -125 -129 0
125 -122 -129 0
-122 -125 129 0
122 125 129 0
-4 -129 0
125 -130 -131 0
130 -125 -131 0
131 -125 -130 0
131 125 130 0
-7 131 0
-122 132 0
-133 132 0
122 133 -132 0
125 -132 -134 0
-125 132 -134 0
-125 -132 134 0
125 132 134 0
-11 134 0
122 135 0
133 135 0
-122 -133 -135 0
-125 135 -136 0
125 -135 -136 0
136 -135 -125 0
125 135 136 0
-14 -136 0
130 -133 -137 0
133 -130 -137 0
-130 -133 137 0
130 133 137 0
-4 -137 0
133 -138 -139 0
138 -133 -139 0
139 -133 -138 0
139 133 138 0
-7 139 0
-130 140 0
-141 140 0
130 141 -140 0
133 -140 -142 0
-133 140 -142 0
-133 -140 142 0
133 140 142 0
-11 142 0
130 143 0
141 143 0
-130 -141 -143 0
-133 143 -144 0
133 -143 -144 0
144 -143 -133 0
133 143 144 0
-14 -144 0
138 -141 -145 0
141 -138 -145 0
-138 -141 145 0
138 141 145 0
-4 -145 0
141 -146 -147 0
146 -141 -147 0
147 -141 -146 0
147 141 146 0
-7 147 0
-138 148 0
-149 148 0
138 149 -148 0
141 -148 -150 0
-141 148 -150 0
-141 -148 150 0
141 148 150 0
-11 150 0
138 151 0
149 151 0
-138 -149 -151 0
-141 151 -152 0
141 -151 -152 0
152 -151 -141 0
141 151 152 0
-14 -152 0
146 -149 -153 0
149 -146 -153 0
-146 -149 153 0
146 149 153 0
-4 -153 0
-114 149 -154 0
114 -149 -154 0
154 -149 -114 0
154 149 114 0
-7 154 0
-114 155 0
-122 155 0
-130 155 0
-138 155 0
-146 155 0
114 122 130 138 146 -155 0
149 -155 -156 0
-149 155 -156 0
-149 -155 156 0
149 155 156 0
-11 156 0
114 157 0
122 157 0
130 157 0
138 157 0
146 157 0
-158 0
-149 157 -159 0
149 -157 -159 0
159 -157 -149 0
149 157 159 0
-14 -159 0
160 -161 -162 0
161 -160 -162 0
-160 -161 162 0
161 160 162 0
-4 -162 0
161 -163 -164 0
163 -161 -164 0
164 -161 -163 0
164 161 163 0
-7 164 0
-160 165 0
-166 165 0
160 166 -165 0
161 -165 -167 0
-161 165 -167 0
-161 -165 167 0
161 165 167 0
-11 167 0
160 168 0
166 168 0
-160 -166 -168 0
-161 168 -169 0
161 -168 -169 0
169 -168 -161 0
161 168 169 0
-14 -169 0
163 -166 -170 0
166 -163 -170 0
-163 -166 170 0
163 166 170 0
-4 -170 0
166 -171 -172 0
171 -166 -172 0
172 -166 -171 0
172 166 171 0
-7 172 0
-163 173 0
-174 173 0
163 174 -173 0
166 -173 -175 0
-166 173 -175 0
-166 -173 175 0
166 173 175 0
-11 175 0
163 176 0
174 176 0
-163 -174 -176 0
-166 176 -177 0
166 -176 -177 0
177 -176 -166 0
166 176 177 0
-14 -177 0
171 -174 -178 0
174 -171 -178 0
-171 -174 178 0
171 174 178 0
-4 -178 0
174 -179 -180 0
179 -174 -180 0
180 -174 -179 0
180 174 179 0
-7 180 0
-171 181 0
-182 181 0
171 182 -181 0
174 -181 -183 0
-174 181 -183 0
-174 -181 183 0
174 181 183 0
-11 183 0
171 184 0
182 184 0
-171 -182 -184 0
-174 184 -185 0
174 -184 -185 0
185 -184 -174 0
174 184 185 0
-14 -185 0
179 -182 -186 0
182 -179 -186 0
-179 -182 186 0
179 182 186 0
-4 -186 0
182 -187 -188 0
187 -182 -188 0
188 -182 -187 0
188 182 187 0
-7 188 0
-179 189 0
-190 189 0
179 190 -189 0
182 -189 -191 0
-182 189 -191 0
-182 -189 191 0
182 189 191 0
-11 191 0
179 192 0
190 192 0
-179 -190 -192 0
-182 192 -193 0
182 -192 -193 0
193 -192 -182 0
182 192 193 0
-14 -193 0
187 -190 -194 0
190 -187 -194 0
-187 -190 194 0
187 190 194 0
-4 -194 0
190 -195 -196 0
195 -190 -196 0
196 -190 -195 0
196 190 195 0
-7 196 0
-187 197 0
-198 197 0
187 198 -197 0
190 -197 -199 0
-190 197 -199 0
-190 -197 199 0
190 197 199 0
-11 199 0
187 200 0
198 200 0
-187 -198 -200 0
-190 200 -201 0
190 -200 -201 0
201 -200 -190 0
190 200 201 0
-14 -201 0
195 -198 -202 0
198 -195 -202 0
-195 -198 202 0
195 198 202 0
-4 -202 0
198 -203 -204 0
203 -198 -204 0
204 -198 -203 0
204 198 203 0
-7 204 0
-195 205 0
-206 205 0
195 206 -205 0
198 -205 -207 0
-198 205 -207 0
-198 -205 207 0
198 205 207 0
-11 207 0
195 208 0
206 208 0
-195 -206 -208 0
-198 208 -209 0
198 -208 -209 0
209 -208 -198 0
198 208 209 0
-14 -209 0
203 -206 -210 0
206 -203 -210 0
-203 -206 210 0
203 206 210 0
-4 -210 0
206 -211 -212 0
211 -206 -212 0
212 -206 -211 0
212 206 211 0
-7 212 0
-203 213 0
-214 213 0
203 214 -213 0
206 -213 -215 0
-206 213 -215 0
-206 -213 215 0
206 213 215 0
-11 215 0
203 216 0
214 216 0
-203 -214 -216 0
-206 216 -217 0
206 -216 -217 0
217 -216 -206 0
206 216 217 0
-14 -217 0
211 -214 -218 0
214 -211 -218 0
-211 -214 218 0
211 214 218 0
-4 -218 0
214 -219 -220 0
219 -214 -220 0
220 -214 -219 0
220 214 219 0
-7 220 0
-211 221 0
-222 221 0
211 222 -221 0
214 -221 -223 0
-214 221 -223 0
-214 -221 223 0
214 221 223 0
-11 223 0
211 224 0
222 224 0
-211 -222 -224 0
-214 224 -225 0
214 -224 -225 0
225 -224 -214 0
214 224 225 0
-14 -225 0
219 -222 -226 0
222 -219 -226 0
-219 -222 226 0
219 222 226 0
-4 -226 0
222 -227 -228 0
227 -222 -228 0
228 -222 -227 0
228 222 227 0
-7 228 0
-219 229 0
-230 229 0
219 230 -229 0
222 -229 -231 0
-222 229 -231 0
-222 -229 231 0
222 229 231 0
-11 231 0
219 232 0
230 232 0
-219 -230 -232 0
-222 232 -233 0
222 -232 -233 0
233 -232 -222 0
222 232 233 0
-14 -233 0
227 -230 -234 0
230 -227 -234 0
-227 -230 234 0
227 230 234 0
-4 -234 0
230 -235 -236 0
235 -230 -236 0
236 -230 -235 0
236 230 235 0
-7 236 0
-227 237 0
-238 237 0
227 238 -237 0
230 -237 -239 0
-230 237 -239 0
-230 -237 239 0
230 237 239 0
-11 239 0
227 240 0
238 240 0
-227 -238 -240 0
-230 240 -241 0
230 -240 -241 0
241 -240 -230 0
230 240 241 0
-14 -241 0
235 -238 -242 0
238 -235 -242 0
-235 -238 242 0
235 238 242 0
-4 -242 0
-195 238 -243 0
195 -238 -243 0
243 -238 -195 0
243 238 195 0
-7 243 0
-195 244 0
-203 244 0
-211 244 0
-219 244 0
-227 244 0
-235 244 0
245 0
238 -244 -246 0
-238 244 -246 0
-238 -244 246 0
238 244 246 0
-11 246 0
195 247 0
203 247 0
211 247 0
219 247 0
227 247 0
235 247 0
-248 0
-238 247 -249 0
238 -247 -249 0
249 -247 -238 0
238 247 249 0
-14 -249 0
250 -251 -252 0
251 -250 -252 0
-250 -251 252 0
251 250 252 0
-4 -252 0
251 -253 -254 0
253 -251 -254 0
254 -251 -253 0
254 251 253 0
-7 254 0
-250 255 0
-256 255 0
250 256 -255 0
251 -255 -257 0
-251 255 -257 0
-251 -255 257 0
251 255 257 0
-11 257 0
250 258 0
256 258 0
-250 -256 -258 0
-251 258 -259 0
251 -258 -259 0
259 -258 -251 0
251 258 259 0
-14 -259 0
253 -256 -260 0
256 -253 -260 0
-253 -256 260 0
253 256 260 0
-4 -260 0
256 -261 -262 0
261 -256 -262 0
262 -256 -261 0
262 256 261 0
-7 262 0
-253 263 0
-264 263 0
253 264 -263 0
256 -263 -265 0
-256 263 -265 0
-256 -263 265 0
256 263 265 0
-11 265 0
253 266 0
264 266 0
-253 -264 -266 0
-256 266 -267 0
256 -266 -267 0
267 -266 -256 0
256 266 267 0
-14 -267 0
261 -264 -268 0
264 -261 -268 0
-261 -264 268 0
261 264 268 0
-4 -268 0
264 -269 -270 0
269 -264 -270 0
270 -264 -269 0
270 264 269 0
-7 270 0
-261 271 0
-272 271 0
261 272 -271 0
264 -271 -273 0
-264 271 -273 0
-264 -271 273 0
264 271 273 0
-11 273 0
261 274 0
272 274 0
-261 -272 -274 0
-264 274 -275 0
264 -274 -275 0
275 -274 -264 0
264 274 275 0
-14 -275 0
269 -272 -276 0
272 -269 -276 0
-269 -272 276 0
269 272 276 0
-4 -276 0
272 -277 -278 0
277 -272 -278 0
278 -272 -277 0
278 272 277 0
-7 278 0
-269 279 0
-280 279 0
269 280 -279 0
272 -279 -281 0
-272 279 -281 0
-272 -279 281 0
272 279 281 0
-11 281 0
269 282 0
280 282 0
-269 -280 -282 0
-272 282 -283 0
272 -282 -283 0
283 -282 -272 0
272 282 283 0
-14 -283 0
277 -280 -284 0
280 -277 -284 0
-277 -280 284 0
277 280 284 0
-4 -284 0
280 -285 -286 0
285 -280 -286 0
286 -280 -285 0
286 280 285 0
-7 286 0
-277 287 0
-288 287 0
277 288 -287 0
280 -287 -289 0
-280 287 -289 0
-280 -287 289 0
280 287 289 0
-11 289 0
277 290 0
288 290 0
-277 -288 -290 0
-280 290 -291 0
280 -290 -291 0
291 -290 -280 0
280 290 291 0
-14 -291 0
285 -288 -292 0
288 -285 -292 0
-285 -288 292 0
285 288 292 0
-4 -292 0
288 -293 -294 0
293 -288 -294 0
294 -288 -293 0
294 288 293 0
-7 294 0
-285 295 0
-296 295 0
285 296 -295 0
288 -295 -297 0
-288 295 -297 0
-288 -295 297 0
288 295 297 0
-11 297 0
285 298 0
296 298 0
-285 -296 -298 0
-288 298 -299 0
288 -298 -299 0
299 -298 -288 0
288 298 299 0
-14 -299 0
293 -296 -300 0
296 -293 -300 0
-293 -296 300 0
293 296 300 0
-4 -300 0
296 -301 -302 0
301 -296 -302 0
302 -296 -301 0
302 296 301 0
-7 302 0
-293 303 0
-304 303 0
293 304 -303 0
296 -303 -305 0
-296 303 -305 0
-296 -303 305 0
296 303 305 0
-11 305 0
293 306 0
304 306 0
-293 -304 -306 0
-296 306 -307 0
296 -306 -307 0
307 -306 -296 0
296 306 307 0
-14 -307 0
301 -304 -308 0
304 -301 -308 0
-301 -304 308 0
301 304 308 0
-4 -308 0
304 -309 -310 0
309 -304 -310 0
310 -304 -309 0
310 304 309 0
-7 310 0
-301 311 0
-312 311 0
301 312 -311 0
304 -311 -313 0
-304 311 -313 0
-304 -311 313 0
304 311 313 0
-11 313 0
301 314 0
312 314 0
-301 -312 -314 0
-304 314 -315 0
304 -314 -315 0
315 -314 -304 0
304 314 315 0
-14 -315 0
309 -312 -316 0
312 -309 -316 0
-309 -312 316 0
309 312 316 0
-4 -316 0
312 -317 -318 0
317 -312 -318 0
318 -312 -317 0
318 312 317 0
-7 318 0
-309 319 0
-320 319 0
309 320 -319 0
312 -319 -321 0
-312 319 -321 0
-312 -319 321 0
312 319 321 0
-11 321 0
309 322 0
320 322 0
-309 -320 -322 0
-312 322 -323 0
312 -322 -323 0
323 -322 -312 0
312 322 323 0
-14 -323 0
317 -320 -324 0
320 -317 -324 0
-317 -320 324 0
317 320 324 0
-4 -324 0
320 -325 -326 0
325 -320 -326 0
326 -320 -325 0
326 320 325 0
-7 326 0
-317 327 0
-328 327 0
317 328 -327 0
320 -327 -329 0
-320 327 -329 0
-320 -327 329 0
320 327 329 0
-11 329 0
317 330 0
328 330 0
-317 -328 -330 0
-320 330 -331 0
320 -330 -331 0
331 -330 -320 0
320 330 331 0
-14 -331 0
325 -328 -332 0
328 -325 -332 0
-325 -328 332 0
325 328 332 0
-4 -332 0
-285 328 -333 0
285 -328 -333 0
333 -328 -285 0
333 328 285 0
-7 333 0
-285 334 0
-293 334 0
-301 334 0
-309 334 0
-317 334 0
-325 334 0
335 0
328 -334 -336 0
-328 334 -336 0
-328 -334 336 0
328 334 336 0
-11 336 0
285 337 0
293 337 0
301 337 0
309 337 0
317 337 0
325 337 0
-338 0
-328 337 -339 0
328 -337 -339 0
339 -337 -328 0
328 337 339 0
-14 -339 0
340 -341 -342 0
341 -340 -342 0
-340 -341 342 0
341 340 342 0
-4 -342 0
341 -343 -344 0
343 -341 -344 0
344 -341 -343 0
344 341 343 0
-7 344 0
-340 345 0
-346 345 0
340 346 -345 0
341 -345 -347 0
-341 345 -347 0
-341 -345 347 0
341 345 347 0
-11 347 0
340 348 0
346 348 0
-340 -346 -348 0
-341 348 -349 0
341 -348 -349 0
349 -348 -341 0
341 348 349 0
-14 -349 0
343 -346 -350 0
346 -343 -350 0
-343 -346 350 0
343 346 350 0
-4 -350 0
346 -351 -352 0
351 -346 -352 0
352 -346 -351 0
352 346 351 0
-7 352 0
-343 353 0
-354 353 0
343 354 -353 0
346 -353 -355 0
-346 353 -355 0
-346 -353 355 0
346 353 355 0
-11 355 0
343 356 0
354 356 0
-343 -354 -356 0
-346 356 -357 0
346 -356 -357 0
357 -356 -346 0
346 356 357 0
-14 -357 0
351 -354 -358 0
354 -351 -358 0
-351 -354 358 0
351 354 358 0
-4 -358 0
354 -359 -360 0
359 -354 -360 0
360 -354 -359 0
360 354 359 0
-7 360 0
-351 361 0
-362 361 0
351 362 -361 0
354 -361 -363 0
-354 361 -363 0
-354 -361 363 0
354 361 363 0
-11 363 0
351 364 0
362 364 0
-351 -362 -364 0
-354 364 -365 0
354 -364 -365 0
365 -364 -354 0
354 364 365 0
-14 -365 0
359 -362 -366 0
362 -359 -366 0
-359 -362 366 0
359 362 366 0
-4 -366 0
362 -367 -368 0
367 -362 -368 0
368 -362 -367 0
368 362 367 0
-7 368 0
-359 369 0
-370 369 0
359 370 -369 0
362 -369 -371 0
-362 369 -371 0
-362 -369 371 0
362 369 371 0
-11 371 0
359 372 0
370 372 0
-359 -370 -372 0
-362 372 -373 0
362 -372 -373 0
373 -372 -362 0
362 372 373 0
-14 -373 0
367 -370 -374 0
370 -367 -374 0
-367 -370 374 0
367 370 374 0
-4 -374 0
370 -375 -376 0
375 -370 -376 0
376 -370 -375 0
376 370 375 0
-7 376 0
-367 377 0
-378 377 0
367 378 -377 0
370 -377 -379 0
-370 377 -379 0
-370 -377 379 0
370 377 379 0
-11 379 0
367 380 0
378 380 0
-367 -378 -380 0
-370 380 -381 0
370 -380 -381 0
381 -380 -370 0
370 380 381 0
-14 -381 0
375 -378 -382 0
378 -375 -382 0
-375 -378 382 0
375 378 382 0
-4 -382 0
378 -383 -384 0
383 -378 -384 0
384 -378 -383 0
384 378 383 0
-7 384 0
-375 385 0
-386 385 0
375 386 -385 0
378 -385 -387 0
-378 385 -387 0
-378 -385 387 0
378 385 387 0
-11 387 0
375 388 0
386 388 0
-375 -386 -388 0
-378 388 -389 0
378 -388 -389 0
389 -388 -378 0
378 388 389 0
-14 -389 0
383 -386 -390 0
386 -383 -390 0
-383 -386 390 0
383 386 390 0
-4 -390 0
386 -391 -392 0
391 -386 -392 0
392 -386 -391 0
392 386 391 0
-7 392 0
-383 393 0
-394 393 0
383 394 -393 0
386 -393 -395 0
-386 393 -395 0
-386 -393 395 0
386 393 395 0
-11 395 0
383 396 0
394 396 0
-383 -394 -396 0
-386 396 -397 0
386 -396 -397 0
397 -396 -386 0
386 396 397 0
-14 -397 0
391 -394 -398 0
394 -391 -398 0
-391 -394 398 0
391 394 398 0
-4 -398 0
394 -399 -400 0
399 -394 -400 0
400 -394 -399 0
400 394 399 0
-7 400 0
-391 401 0
-402 401 0
391 402 -401 0
394 -401 -403 0
-394 401 -403 0
-394 -401 403 0
394 401 403 0
-11 403 0
391 404 0
402 404 0
-391 -402 -404 0
-394 404 -405 0
394 -404 -405 0
405 -404 -394 0
394 404 405 0
-14 -405 0
399 -402 -406 0
402 -399 -406 0
-399 -402 406 0
399 402 406 0
-4 -406 0
-367 402 -407 0
367 -402 -407 0
407 -402 -367 0
407 402 367 0
-7 407 0
-367 408 0
-375 408 0
-383 408 0
-391 408 0
-399 408 0
367 375 383 391 399 -408 0
402 -408 -409 0
-402 408 -409 0
-402 -408 409 0
402 408 409 0
-11 409 0
367 410 0
375 410 0
383 410 0
391 410 0
399 410 0
-411 0
-402 410 -412 0
402 -410 -412 0
412 -410 -402 0
402 410 412 0
-14 -412 0
413 -414 -415 0
414 -413 -415 0
-413 -414 415 0
414 413 415 0
-4 -415 0
414 -416 -417 0
416 -414 -417 0
417 -414 -416 0
417 414 416 0
-7 417 0
-413 418 0
-419 418 0
413 419 -418 0
414 -418 -420 0
-414 418 -420 0
-414 -418 420 0
414 418 420 0
-11 420 0
413 421 0
419 421 0
-413 -419 -421 0
-414 421 -422 0
414 -421 -422 0
422 -421 -414 0
414 421 422 0
-14 -422 0
416 -419 -423 0
419 -416 -423 0
-416 -419 423 0
416 419 423 0
-4 -423 0
419 -424 -425 0
424 -419 -425 0
425 -419 -424 0
425 419 424 0
-7 425 0
-416 426 0
-427 426 0
416 427 -426 0
419 -426 -428 0
-419 426 -428 0
-419 -426 428 0
419 426 428 0
-11 428 0
416 429 0
427 429 0
-416 -427 -429 0
-419 429 -430 0
419 -429 -430 0
430 -429 -419 0
419 429 430 0
-14 -430 0
424 -427 -431 0
427 -424 -431 0
-424 -427 431 0
424 427 431 0
-4 -431 0
427 -432 -433 0
432 -427 -433 0
433 -427 -432 0
433 427 432 0
-7 433 0
-424 434 0
-435 434 0
424 435 -434 0
427 -434 -436 0
-427 434 -436 0
-427 -434 436 0
427 434 436 0
-11 436 0
424 437 0
435 437 0
-424 -435 -437 0
-427 437 -438 0
427 -437 -438 0
438 -437 -427 0
427 437 438 0
-14 -438 0
432 -435 -439 0
435 -432 -439 0
-432 -435 439 0
432 435 439 0
-4 -439 0
435 -432 -440 0
432 -435 -440 0
440 -435 -432 0
440 435 432 0
-7 440 0
-11 440 0
-14 440 0
441 -442 -443 0
442 -441 -443 0
-441 -442 443 0
442 441 443 0
-4 -443 0
442 -444 -445 0
444 -442 -445 0
445 -442 -444 0
445 442 444 0
-7 445 0
-441 446 0
-447 446 0
441 447 -446 0
442 -446 -448 0
-442 446 -448 0
-442 -446 448 0
442 446 448 0
-11 448 0
441 449 0
447 449 0
-441 -447 -449 0
-442 449 -450 0
442 -449 -450 0
450 -449 -442 0
442 449 450 0
-14 -450 0
444 -447 -451 0
447 -444 -451 0
-444 -447 451 0
444 447 451 0
-4 -451 0
447 -452 -453 0
452 -447 -453 0
453 -447 -452 0
453 447 452 0
-7 453 0
-444 454 0
-455 454 0
444 455 -454 0
447 -454 -456 0
-447 454 -456 0
-447 -454 456 0
447 454 456 0
-11 456 0
444 457 0
455 457 0
-444 -455 -457 0
-447 457 -458 0
447 -457 -458 0
458 -457 -447 0
447 457 458 0
-14 -458 0
452 -455 -459 0
455 -452 -459 0
-452 -455 459 0
452 455 459 0
-4 -459 0
455 -460 -461 0
460 -455 -461 0
461 -455 -460 0
461 455 460 0
-7 461 0
-452 462 0
-463 462 0
452 463 -462 0
455 -462 -464 0
-455 462 -464 0
-455 -462 464 0
455 462 464 0
-11 464 0
452 465 0
463 465 0
-452 -463 -465 0
-455 465 -466 0
455 -465 -466 0
466 -465 -455 0
455 465 466 0
-14 -466 0
460 -463 -467 0
463 -460 -467 0
-460 -463 467 0
460 463 467 0
-4 -467 0
463 -468 -469 0
468 -463 -469 0
469 -463 -468 0
469 463 468 0
-7 469 0
-460 470 0
-471 470 0
460 471 -470 0
463 -470 -472 0
-463 470 -472 0
-463 -470 472 0
463 470 472 0
-11 472 0
460 473 0
471 473 0
-460 -471 -473 0
-463 473 -474 0
463 -473 -474 0
474 -473 -463 0
463 473 474 0
-14 -474 0
468 -471 -475 0
471 -468 -475 0
-468 -471 475 0
468 471 475 0
-4 -475 0
471 -476 -477 0
476 -471 -477 0
477 -471 -476 0
477 471 476 0
-7 477 0
-468 478 0
-479 478 0
468 479 -478 0
471 -478 -480 0
-471 478 -480 0
-471 -478 480 0
471 478 480 0
-11 480 0
468 481 0
479 481 0
-468 -479 -481 0
-471 481 -482 0
471 -481 -482 0
482 -481 -471 0
471 481 482 0
-14 -482 0
476 -479 -483 0
479 -476 -483 0
-476 -479 483 0
476 479 483 0
-4 -483 0
479 -484 -485 0
484 -479 -485 0
485 -479 -484 0
485 479 484 0
-7 485 0
-476 486 0
-487 486 0
476 487 -486 0
479 -486 -488 0
-479 486 -488 0
-479 -486 488 0
479 486 488 0
-11 488 0
476 489 0
487 489 0
-476 -487 -489 0
-479 489 -490 0
479 -489 -490 0
490 -489 -479 0
479 489 490 0
-14 -490 0
484 -487 -491 0
487 -484 -491 0
-484 -487 491 0
484 487 491 0
-4 -491 0
487 -492 -493 0
492 -487 -493 0
493 -487 -492 0
493 487 492 0
-7 493 0
-484 494 0
-495 494 0
484 495 -494 0
487 -494 -496 0
-487 494 -496 0
-487 -494 496 0
487 494 496 0
-11 496 0
484 497 0
495 497 0
-484 -495 -497 0
-487 497 -498 0
487 -497 -498 0
498 -497 -487 0
487 497 498 0
-14 -498 0
492 -495 -499 0
495 -492 -499 0
-492 -495 499 0
492 495 499 0
-4 -499 0
495 -500 -501 0
500 -495 -501 0
501 -495 -500 0
501 495 500 0
-7 501 0
-492 502 0
-503 502 0
492 503 -502 0
495 -502 -504 0
-495 502 -504 0
-495 -502 504 0
495 502 504 0
-11 504 0
492 505 0
503 505 0
-492 -503 -505 0
-495 505 -506 0
495 -505 -506 0
506 -505 -495 0
495 505 506 0
-14 -506 0
500 -503 -507 0
503 -500 -507 0
-500 -503 507 0
500 503 507 0
-4 -507 0
-468 503 -508 0
468 -503 -508 0
508 -503 -468 0
508 503 468 0
-7 508 0
-468 509 0
-476 509 0
-484 509 0
-492 509 0
-500 509 0
468 476 484 492 500 -509 0
503 -509 -510 0
-503 509 -510 0
-503 -509 510 0
503 509 510 0
-11 510 0
468 511 0
476 511 0
484 511 0
492 511 0
500 511 0
-512 0
-503 511 -513 0
503 -511 -513 0
513 -511 -503 0
503 511 513 0
-14 -513 0
514 -515 -516 0
515 -514 -516 0
-514 -515 516 0
515 514 516 0
-4 -516 0
515 -517 -518 0
517 -515 -518 0
518 -515 -517 0
518 515 517 0
-7 518 0
-514 519 0
-520 519 0
514 520 -519 0
515 -519 -521 0
-515 519 -521 0
-515 -519 521 0
515 519 521 0
-11 521 0
514 522 0
520 522 0
-514 -520 -522 0
-515 522 -523 0
515 -522 -523 0
523 -522 -515 0
515 522 523 0
-14 -523 0
517 -520 -524 0
520 -517 -524 0
-517 -520 524 0
517 520 524 0
-4 -524 0
520 -525 -526 0
525 -520 -526 0
526 -520 -525 0
526 520 525 0
-7 526 0
-517 527 0
-528 527 0
517 528 -527 0
520 -527 -529 0
-520 527 -529 0
-520 -527 529 0
520 527 529 0
-11 529 0
517 530 0
528 530 0
-517 -528 -530 0
-520 530 -531 0
520 -530 -531 0
531 -530 -520 0
520 530 531 0
-14 -531 0
525 -528 -532 0
528 -525 -532 0
-525 -528 532 0
525 528 532 0
-4 -532 0
528 -533 -534 0
533 -528 -534 0
534 -528 -533 0
534 528 533 0
-7 534 0
-525 535 0
-536 535 0
525 536 -535 0
528 -535 -537 0
-528 535 -537 0
-528 -535 537 0
528 535 537 0
-11 537 0
525 538 0
536 538 0
-525 -536 -538 0
-528 538 -539 0
528 -538 -539 0
539 -538 -528 0
528 538 539 0
-14 -539 0
533 -536 -540 0
536 -533 -540 0
-533 -536 540 0
533 536 540 0
-4 -540 0
536 -541 -542 0
541 -536 -542 0
542 -536 -541 0
542 536 541 0
-7 542 0
-533 543 0
-544 543 0
533 544 -543 0
536 -543 -545 0
-536 543 -545 0
-536 -543 545 0
536 543 545 0
-11 545 0
533 546 0
544 546 0
-533 -544 -546 0
-536 546 -547 0
536 -546 -547 0
547 -546 -536 0
536 546 547 0
-14 -547 0
541 -544 -548 0
544 -541 -548 0
-541 -544 548 0
541 544 548 0
-4 -548 0
544 -549 -550 0
549 -544 -550 0
550 -544 -549 0
550 544 549 0
-7 550 0
-541 551 0
-552 551 0
541 552 -551 0
544 -551 -553 0
-544 551 -553 0
-544 -551 553 0
544 551 553 0
-11 553 0
541 554 0
552 554 0
-541 -552 -554 0
-544 554 -555 0
544 -554 -555 0
555 -554 -544 0
544 554 555 0
-14 -555 0
549 -552 -556 0
552 -549 -556 0
-549 -552 556 0
549 552 556 0
-4 -556 0
552 -557 -558 0
557 -552 -558 0
558 -552 -557 0
558 552 557 0
-7 558 0
-549 559 0
-560 559 0
549 560 -559 0
552 -559 -561 0
-552 559 -561 0
-552 -559 561 0
552 559 561 0
-11 561 0
549 562 0
560 562 0
-549 -560 -562 0
-552 562 -563 0
552 -562 -563 0
563 -562 -552 0
552 562 563 0
-14 -563 0
557 -560 -564 0
560 -557 -564 0
-557 -560 564 0
557 560 564 0
-4 -564 0
560 -565 -566 0
565 -560 -566 0
566 -560 -565 0
566 560 565 0
-7 566 0
-557 567 0
-568 567 0
557 568 -567 0
560 -567 -569 0
-560 567 -569 0
-560 -567 569 0
560 567 569 0
-11 569 0
557 570 0
568 570 0
-557 -568 -570 0
-560 570 -571 0
560 -570 -571 0
571 -570 -560 0
560 570 571 0
-14 -571 0
565 -568 -572 0
568 -565 -572 0
-565 -568 572 0
565 568 572 0
-4 -572 0
568 -573 -574 0
573 -568 -574 0
574 -568 -573 0
574 568 573 0
-7 574 0
-565 575 0
-576 575 0
565 576 -575 0
568 -575 -577 0
-568 575 -577 0
-568 -575 577 0
568 575 577 0
-11 577 0
565 578 0
576 578 0
-565 -576 -578 0
-568 578 -579 0
568 -578 -579 0
579 -578 -568 0
568 578 579 0
-14 -579 0
573 -576 -580 0
576 -573 -580 0
-573 -576 580 0
573 576 580 0
-4 -580 0
576 -581 -582 0
581 -576 -582 0
582 -576 -581 0
582 576 581 0
-7 582 0
-573 583 0
-584 583 0
573 584 -583 0
576 -583 -585 0
-576 583 -585 0
-576 -583 585 0
576 583 585 0
-11 585 0
573 586 0
584 586 0
-573 -584 -586 0
-576 586 -587 0
576 -586 -587 0
587 -586 -576 0
576 586 587 0
-14 -587 0
581 -584 -588 0
584 -581 -588 0
-581 -584 588 0
581 584 588 0
-4 -588 0
-557 584 -589 0
557 -584 -589 0
589 -584 -557 0
589 584 557 0
-7 589 0
-557 590 0
-565 590 0
-573 590 0
-581 590 0
557 565 573 581 -590 0
584 -590 -591 0
-584 590 -591 0
-584 -590 591 0
584 590 591 0
-11 591 0
557 592 0
565 592 0
573 592 0
581 592 0
-593 0
-584 592 -594 0
584 -592 -594 0
594 -592 -584 0
584 592 594 0
-14 -594 0
595 -596 -597 0
596 -595 -597 0
-595 -596 597 0
596 595 597 0
-4 -597 0
596 -598 -599 0
598 -596 -599 0
599 -596 -598 0
599 596 598 0
-7 599 0
-595 600 0
-601 600 0
595 601 -600 0
596 -600 -602 0
-596 600 -602 0
-596 -600 602 0
596 600 602 0
-11 602 0
595 603 0
601 603 0
-595 -601 -603 0
-596 603 -604 0
596 -603 -604 0
604 -603 -596 0
596 603 604 0
-14 -604 0
598 -601 -605 0
601 -598 -605 0
-598 -601 605 0
598 601 605 0
-4 -605 0
601 -606 -607 0
606 -601 -607 0
607 -601 -606 0
607 601 606 0
-7 607 0
-598 608 0
-609 608 0
598 609 -608 0
601 -608 -610 0
-601 608 -610 0
-601 -608 610 0
601 608 610 0
-11 610 0
598 611 0
609 611 0
-598 -609 -611 0
-601 611 -612 0
601 -611 -612 0
612 -611 -601 0
601 611 612 0
-14 -612 0
606 -609 -613 0
609 -606 -613 0
-606 -609 613 0
606 609 613 0
-4 -613 0
609 -614 -615 0
614 -609 -615 0
615 -609 -614 0
615 609 614 0
-7 615 0
-606 616 0
-617 616 0
606 617 -616 0
609 -616 -618 0
-609 616 -618 0
-609 -616 618 0
609 616 618 0
-11 618 0
606 619 0
617 619 0
-606 -617 -619 0
-609 619 -620 0
609 -619 -620 0
620 -619 -609 0
609 619 620 0
-14 -620 0
614 -617 -621 0
617 -614 -621 0
-614 -617 621 0
614 617 621 0
-4 -621 0
617 -622 -623 0
622 -617 -623 0
623 -617 -622 0
623 617 622 0
-7 623 0
-614 624 0
-625 624 0
614 625 -624 0
617 -624 -626 0
-617 624 -626 0
-617 -624 626 0
617 624 626 0
-11 626 0
614 627 0
625 627 0
-614 -625 -627 0
-617 627 -628 0
617 -627 -628 0
628 -627 -617 0
617 627 628 0
-14 -628 0
622 -625 -629 0
625 -622 -629 0
-622 -625 629 0
622 625 629 0
-4 -629 0
625 -630 -631 0
630 -625 -631 0
631 -625 -630 0
631 625 630 0
-7 631 0
-622 632 0
-633 632 0
622 633 -632 0
625 -632 -634 0
-625 632 -634 0
-625 -632 634 0
625 632 634 0
-11 634 0
622 635 0
633 635 0
-622 -633 -635 0
-625 635 -636 0
625 -635 -636 0
636 -635 -625 0
625 635 636 0
-14 -636 0
630 -633 -637 0
633 -630 -637 0
-630 -633 637 0
630 633 637 0
-4 -637 0
633 -638 -639 0
638 -633 -639 0
639 -633 -638 0
639 633 638 0
-7 639 0
-630 640 0
-641 640 0
630 641 -640 0
633 -640 -642 0
-633 640 -642 0
-633 -640 642 0
633 640 642 0
-11 642 0
630 643 0
641 643 0
-630 -641 -643 0
-633 643 -644 0
633 -643 -644 0
644 -643 -633 0
633 643 644 0
-14 -644 0
638 -641 -645 0
641 -638 -645 0
-638 -641 645 0
638 641 645 0
-4 -645 0
641 -646 -647 0
646 -641 -647 0
647 -641 -646 0
647 641 646 0
-7 647 0
-638 648 0
-649 648 0
638 649 -648 0
641 -648 -650 0
-641 648 -650 0
-641 -648 650 0
641 648 650 0
-11 650 0
638 651 0
649 651 0
-638 -649 -651 0
-641 651 -652 0
641 -651 -652 0
652 -651 -641 0
641 651 652 0
-14 -652 0
646 -649 -653 0
649 -646 -653 0
-646 -649 653 0
646 649 653 0
-4 -653 0
649 -654 -655 0
654 -649 -655 0
655 -649 -654 0
655 649 654 0
-7 655 0
-646 656 0
-657 656 0
646 657 -656 0
649 -656 -658 0
-649 656 -658 0
-649 -656 658 0
649 656 658 0
-11 658 0
646 659 0
657 659 0
-646 -657 -659 0
-649 659 -660 0
649 -659 -660 0
660 -659 -649 0
649 659 660 0
-14 -660 0
654 -657 -661 0
657 -654 -661 0
-654 -657 661 0
654 657 661 0
-4 -661 0
657 -662 -663 0
662 -657 -663 0
663 -657 -662 0
663 657 662 0
-7 663 0
-654 664 0
-665 664 0
654 665 -664 0
657 -664 -666 0
-657 664 -666 0
-657 -664 666 0
657 664 666 0
-11 666 0
654 667 0
665 667 0
-654 -665 -667 0
-657 667 -668 0
657 -667 -668 0
668 -667 -657 0
657 667 668 0
-14 -668 0
662 -665 -669 0
665 -662 -669 0
-662 -665 669 0
662 665 669 0
-4 -669 0
665 -670 -671 0
670 -665 -671 0
671 -665 -670 0
671 665 670 0
-7 671 0
-662 672 0
-673 672 0
662 673 -672 0
665 -672 -674 0
-665 672 -674 0
-665 -672 674 0
665 672 674 0
-11 674 0
662 675 0
673 675 0
-662 -673 -675 0
-665 675 -676 0
665 -675 -676 0
676 -675 -665 0
665 675 676 0
-14 -676 0
670 -673 -677 0
673 -670 -677 0
-670 -673 677 0
670 673 677 0
-4 -677 0
-630 673 -678 0
630 -673 -678 0
678 -673 -630 0
678 673 630 0
-7 678 0
-630 679 0
-638 679 0
-646 679 0
-654 679 0
-662 679 0
-670 679 0
680 0
673 -679 -681 0
-673 679 -681 0
-673 -679 681 0
673 679 681 0
-11 681 0
630 682 0
638 682 0
646 682 0
654 682 0
662 682 0
670 682 0
-683 0
-673 682 -684 0
673 -682 -684 0
684 -682 -673 0
673 682 684 0
-14 -684 0
685 -686 -687 0
686 -685 -687 0
-685 -686 687 0
686 685 687 0
-4 -687 0
686 -688 -689 0
688 -686 -689 0
689 -686 -688 0
689 686 688 0
-7 689 0
-685 690 0
-691 690 0
685 691 -690 0
686 -690 -692 0
-686 690 -692 0
-686 -690 692 0
686 690 692 0
-11 692 0
685 693 0
691 693 0
-685 -691 -693 0
-686 693 -694 0
686 -693 -694 0
694 -693 -686 0
686 693 694 0
-14 -694 0
688 -691 -695 0
691 -688 -695 0
-688 -691 695 0
688 691 695 0
-4 -695 0
691 -696 -697 0
696 -691 -697 0
697 -691 -696 0
697 691 696 0
-7 697 0
-688 698 0
-699 698 0
688 699 -698 0
691 -698 -700 0
-691 698 -700 0
-691 -698 700 0
691 698 700 0
-11 700 0
688 701 0
699 701 0
-688 -699 -701 0
-691 701 -702 0
691 -701 -702 0
702 -701 -691 0
691 701 702 0
-14 -702 0
696 -699 -703 0
699 -696 -703 0
-696 -699 703 0
696 699 703 0
-4 -703 0
699 -704 -705 0
704 -699 -705 0
705 -699 -704 0
705 699 704 0
-7 705 0
-696 706 0
-707 706 0
696 707 -706 0
699 -706 -708 0
-699 706 -708 0
-699 -706 708 0
699 706 708 0
-11 708 0
696 709 0
707 709 0
-696 -707 -709 0
-699 709 -710 0
699 -709 -710 0
710 -709 -699 0
699 709 710 0
-14 -710 0
704 -707 -711 0
707 -704 -711 0
-704 -707 711 0
704 707 711 0
-4 -711 0
707 -712 -713 0
712 -707 -713 0
713 -707 -712 0
713 707 712 0
-7 713 0
-704 714 0
-715 714 0
704 715 -714 0
707 -714 -716 0
-707 714 -716 0
-707 -714 716 0
707 714 716 0
-11 716 0
704 717 0
715 717 0
-704 -715 -717 0
-707 717 -718 0
707 -717 -718 0
718 -717 -707 0
707 717 718 0
-14 -718 0
712 -715 -719 0
715 -712 -719 0
-712 -715 719 0
712 715 719 0
-4 -719 0
715 -720 -721 0
720 -715 -721 0
721 -715 -720 0
721 715 720 0
-7 721 0
-712 722 0
-723 722 0
712 723 -722 0
715 -722 -724 0
-715 722 -724 0
-715 -722 724 0
715 722 724 0
-11 724 0
712 725 0
723 725 0
-712 -723 -725 0
-715 725 -726 0
715 -725 -726 0
726 -725 -715 0
715 725 726 0
-14 -726 0
720 -723 -727 0
723 -720 -727 0
-720 -723 727 0
720 723 727 0
-4 -727 0
723 -728 -729 0
728 -723 -729 0
729 -723 -728 0
729 723 728 0
-7 729 0
-720 730 0
-731 730 0
720 731 -730 0
723 -730 -732 0
-723 730 -732 0
-723 -730 732 0
723 730 732 0
-11 732 0
720 733 0
731 733 0
-720 -731 -733 0
-723 733 -734 0
723 -733 -734 0
734 -733 -723 0
723 733 734 0
-14 -734 0
728 -731 -735 0
731 -728 -735 0
-728 -731 735 0
728 731 735 0
-4 -735 0
731 -736 -737 0
736 -731 -737 0
737 -731 -736 0
737 731 736 0
-7 737 0
-728 738 0
-739 738 0
728 739 -738 0
731 -738 -740 0
-731 738 -740 0
-731 -738 740 0
731 738 740 0
-11 740 0
728 741 0
739 741 0
-728 -739 -741 0
-731 741 -742 0
731 -741 -742 0
742 -741 -731 0
731 741 742 0
-14 -742 0
736 -739 -743 0
739 -736 -743 0
-736 -739 743 0
736 739 743 0
-4 -743 0
-712 739 -744 0
712 -739 -744 0
744 -739 -712 0
744 739 712 0
-7 744 0
-712 745 0
-720 745 0
-728 745 0
-736 745 0
712 720 728 736 -745 0
739 -745 -746 0
-739 745 -746 0
-739 -745 746 0
739 745 746 0
-11 746 0
712 747 0
720 747 0
728 747 0
736 747 0
-748 0
-739 747 -749 0
739 -747 -749 0
749 -747 -739 0
739 747 749 0
-14 -749 0
750 -751 -752 0
751 -750 -752 0
-750 -751 752 0
751 750 752 0
-4 -752 0
751 -750 -753 0
750 -751 -753 0
753 -751 -750 0
753 751 750 0
-7 753 0
-11 753 0
-14 753 0
754 -755 -756 0
755 -754 -756 0
-754 -755 756 0
755 754 756 0
-4 -756 0
755 -754 -757 0
754 -755 -757 0
757 -755 -754 0
757 755 754 0
-7 757 0
-11 757 0
-14 757 0
758 -759 -760 0
759 -758 -760 0
-758 -759 760 0
759 758 760 0
-4 -760 0
759 -758 -761 0
758 -759 -761 0
761 -759 -758 0
761 759 758 0
-7 761 0
-11 761 0
-14 761 0
762 -763 -764 0
763 -762 -764 0
-762 -763 764 0
763 762 764 0
-4 -764 0
763 -762 -765 0
762 -763 -765 0
765 -763 -762 0
765 763 762 0
-7 765 0
-11 765 0
-14 765 0
766 -767 -768 0
767 -766 -768 0
-766 -767 768 0
767 766 768 0
-4 -768 0
767 -766 -769 0
766 -767 -769 0
769 -767 -766 0
769 767 766 0
-7 769 0
-11 769 0
-14 769 0
770 -771 -772 0
771 -770 -772 0
-770 -771 772 0
771 770 772 0
-4 -772 0
771 -770 -773 0
770 -771 -773 0
773 -771 -770 0
773 771 770 0
-7 773 0
-11 773 0
-14 773 0
774 -775 -776 0
775 -774 -776 0
-774 -775 776 0
775 774 776 0
-4 -776 0
775 -774 -777 0
774 -775 -777 0
777 -775 -774 0
777 775 774 0
-7 777 0
-11 777 0
-14 777 0
778 -779 -780 0
779 -778 -780 0
-778 -779 780 0
779 778 780 0
-4 -780 0
779 -778 -781 0
778 -779 -781 0
781 -779 -778 0
781 779 778 0
-7 781 0
-11 781 0
-14 781 0
782 -783 -784 0
783 -782 -784 0
-782 -783 784 0
783 782 784 0
-4 -784 0
783 -782 -785 0
782 -783 -785 0
785 -783 -782 0
785 783 782 0
-7 785 0
-11 785 0
-14 785 0
786 -787 -788 0
787 -786 -788 0
-786 -787 788 0
787 786 788 0
-4 -788 0
787 -786 -789 0
786 -787 -789 0
789 -787 -786 0
789 787 786 0
-7 789 0
-11 789 0
-14 789 0
4 7 11 14 0
-4 -7 0
-4 -11 0
-4 -14 0
-7 -11 0
-7 -14 0
-11 -14 0
1 0
-5 0
-16 0
-24 0
32 0
40 0
48 0
56 0
64 0
-72 0
-80 0
-95 0
-98 0
106 0
-114 0
122 0
130 0
-138 0
-146 0
160 0
-163 0
171 0
179 0
187 0
195 0
-203 0
-211 0
-219 0
227 0
-235 0
250 0
253 0
261 0
-269 0
277 0
285 0
-293 0
-301 0
-309 0
317 0
-325 0
340 0
343 0
-351 0
359 0
-367 0
-375 0
383 0
391 0
-399 0
-413 0
416 0
424 0
-432 0
441 0
-444 0
452 0
-460 0
-468 0
-476 0
-484 0
492 0
500 0
-514 0
-517 0
-525 0
533 0
-541 0
-549 0
557 0
-565 0
573 0
581 0
595 0
598 0
-606 0
-614 0
-622 0
630 0
-638 0
-646 0
-654 0
662 0
670 0
685 0
-688 0
-696 0
704 0
712 0
720 0
728 0
-736 0
-750 0
-754 0
-758 0
-762 0
-766 0
-770 0
-774 0
-778 0
-782 0
-786 0
2 0
96 0
161 0
251 0
341 0
414 0
442 0
515 0
596 0
686 0
-751 0
-755 0
-759 0
-763 0
-767 0
-771 0
-775 0
-779 0
-783 0
-787 0
